53742
44, 8, 38, 50, 20, 24, 35, 5, 13, 51, 37, 7, 40, 43, 3, 6, 28, 55, 26, 54, 47, 30, 4, 18, 12, 9, 14, 2, 45, 11, 25, 31, 27, 1, 33, 42, 52, 15, 36, 46, 39, 16, 22, 10, 34, 53, 23, 21, 29, 17, 48, 49, 19, 41, 32
